NAME: n20q45G.tsp, 20 nodes, semilla 666
COMMENT: Problema aleatorio de norma euclidea
DIMENSION: 20
CAPACITY: 45
EDGE_WEIGHT_TYPE: EUC_2D
NODE_COORD_SECTION
1   0.0000   0.0000
2 235.0000 -286.0000
3 -447.0000 493.0000
4  60.0000 350.0000
5 -467.0000 374.0000
6 500.0000 390.0000
7 169.0000 153.0000
8 -413.0000 -465.0000
9 254.0000 -350.0000
10 -15.0000 -331.0000
11 -493.0000 341.0000
12 -223.0000  27.0000
13 305.0000 -209.0000
14 -60.0000 443.0000
15  35.0000 331.0000
16 -487.0000 -365.0000
17 -310.0000 -272.0000
18 347.0000  65.0000
19 416.0000 161.0000
20 299.0000 -15.0000
DISPLAY_DATA_SECTION:
 1  250  250
 2  367  107
 3   26  496
 4  280  425
 5   16  437
 6  500  445
 7  334  326
 8   43   17
 9  377   75
10  242   84
11    3  420
12  138  263
13  402  145
14  220  471
15  267  415
16    6   67
17   95  114
18  423  282
19  458  330
20  399  242
DEMAND_SECTION
1 7
2 -1
3 5
4 4
5 -3
6 -2
7 -7
8 1
9 -4
10 6
11 -4
12 3
13 -6
14 1
15 8
16 -9
17 0
18 4
19 4
20 -7
EOF